Minimize

x_0 + x_1 + x_2 + x_3 + x_4


Subject To


z0: x_0 - y$0 = 0
z1: x_1 - y$1 = 0
z2: x_2 - y$2 = 0
z3: x_3 - y$3 = 0
z4: x_4 - y$4 = 0
z5: x$_0 = 1 -> y$0 - y$1 >= 1
z6: x$_1 = 1 -> y$1 - y$0 >= 1
z7: x$_0 + x$_1 = 1
z8: x$_2 = 1 -> y$0 - y$2 >= 1
z9: x$_3 = 1 -> y$2 - y$0 >= 1
z10: x$_2 + x$_3 = 1
z11: x$_4 = 1 -> y$0 - y$3 >= 1
z12: x$_5 = 1 -> y$3 - y$0 >= 1
z13: x$_4 + x$_5 = 1
z14: x$_6 = 1 -> y$0 - y$4 >= 1
z15: x$_7 = 1 -> y$4 - y$0 >= 1
z16: x$_6 + x$_7 = 1
z17: x$_8 = 1 -> y$1 - y$2 >= 1
z18: x$_9 = 1 -> y$2 - y$1 >= 1
z19: x$_8 + x$_9 = 1
z20: x$_10 = 1 -> y$1 - y$3 >= 1
z21: x$_11 = 1 -> y$3 - y$1 >= 1
z22: x$_10 + x$_11 = 1
z23: x$_12 = 1 -> y$1 - y$4 >= 1
z24: x$_13 = 1 -> y$4 - y$1 >= 1
z25: x$_12 + x$_13 = 1
z26: x$_14 = 1 -> y$2 - y$3 >= 1
z27: x$_15 = 1 -> y$3 - y$2 >= 1
z28: x$_14 + x$_15 = 1
z29: x$_16 = 1 -> y$2 - y$4 >= 1
z30: x$_17 = 1 -> y$4 - y$2 >= 1
z31: x$_16 + x$_17 = 1
z32: x$_18 = 1 -> y$3 - y$4 >= 1
z33: x$_19 = 1 -> y$4 - y$3 >= 1
z34: x$_18 + x$_19 = 1
z35: x_0 + i - y$5 = 0
z36: x_1 + i - y$6 = 0
z37: x_2 + i - y$7 = 0
z38: x_3 + i - y$8 = 0
z39: x_4 + i - y$9 = 0
z40: x$_20 = 1 -> y$5 - y$6 >= 1
z41: x$_21 = 1 -> y$6 - y$5 >= 1
z42: x$_20 + x$_21 = 1
z43: x$_22 = 1 -> y$5 - y$7 >= 1
z44: x$_23 = 1 -> y$7 - y$5 >= 1
z45: x$_22 + x$_23 = 1
z46: x$_24 = 1 -> y$5 - y$8 >= 1
z47: x$_25 = 1 -> y$8 - y$5 >= 1
z48: x$_24 + x$_25 = 1
z49: x$_26 = 1 -> y$5 - y$9 >= 1
z50: x$_27 = 1 -> y$9 - y$5 >= 1
z51: x$_26 + x$_27 = 1
z52: x$_28 = 1 -> y$6 - y$7 >= 1
z53: x$_29 = 1 -> y$7 - y$6 >= 1
z54: x$_28 + x$_29 = 1
z55: x$_30 = 1 -> y$6 - y$8 >= 1
z56: x$_31 = 1 -> y$8 - y$6 >= 1
z57: x$_30 + x$_31 = 1
z58: x$_32 = 1 -> y$6 - y$9 >= 1
z59: x$_33 = 1 -> y$9 - y$6 >= 1
z60: x$_32 + x$_33 = 1
z61: x$_34 = 1 -> y$7 - y$8 >= 1
z62: x$_35 = 1 -> y$8 - y$7 >= 1
z63: x$_34 + x$_35 = 1
z64: x$_36 = 1 -> y$7 - y$9 >= 1
z65: x$_37 = 1 -> y$9 - y$7 >= 1
z66: x$_36 + x$_37 = 1
z67: x$_38 = 1 -> y$8 - y$9 >= 1
z68: x$_39 = 1 -> y$9 - y$8 >= 1
z69: x$_38 + x$_39 = 1
z70: x_0 - i - y$10 = 0
z71: x_1 - i - y$11 = 0
z72: x_2 - i - y$12 = 0
z73: x_3 - i - y$13 = 0
z74: x_4 - i - y$14 = 0
z75: x$_40 = 1 -> y$10 - y$11 >= 1
z76: x$_41 = 1 -> y$11 - y$10 >= 1
z77: x$_40 + x$_41 = 1
z78: x$_42 = 1 -> y$10 - y$12 >= 1
z79: x$_43 = 1 -> y$12 - y$10 >= 1
z80: x$_42 + x$_43 = 1
z81: x$_44 = 1 -> y$10 - y$13 >= 1
z82: x$_45 = 1 -> y$13 - y$10 >= 1
z83: x$_44 + x$_45 = 1
z84: x$_46 = 1 -> y$10 - y$14 >= 1
z85: x$_47 = 1 -> y$14 - y$10 >= 1
z86: x$_46 + x$_47 = 1
z87: x$_48 = 1 -> y$11 - y$12 >= 1
z88: x$_49 = 1 -> y$12 - y$11 >= 1
z89: x$_48 + x$_49 = 1
z90: x$_50 = 1 -> y$11 - y$13 >= 1
z91: x$_51 = 1 -> y$13 - y$11 >= 1
z92: x$_50 + x$_51 = 1
z93: x$_52 = 1 -> y$11 - y$14 >= 1
z94: x$_53 = 1 -> y$14 - y$11 >= 1
z95: x$_52 + x$_53 = 1
z96: x$_54 = 1 -> y$12 - y$13 >= 1
z97: x$_55 = 1 -> y$13 - y$12 >= 1
z98: x$_54 + x$_55 = 1
z99: x$_56 = 1 -> y$12 - y$14 >= 1
z100: x$_57 = 1 -> y$14 - y$12 >= 1
z101: x$_56 + x$_57 = 1
z102: x$_58 = 1 -> y$13 - y$14 >= 1
z103: x$_59 = 1 -> y$14 - y$13 >= 1
z104: x$_58 + x$_59 = 1


Bounds

x_0 <= 4
x_1 <= 4
x_2 <= 4
x_3 <= 4
x_4 <= 4
y$0 free
y$1 free
y$2 free
y$3 free
y$4 free
y$5 free
y$6 free
y$7 free
y$8 free
y$9 free
y$10 free
y$11 free
y$12 free
y$13 free
y$14 free


Binary

x$_0 x$_1 x$_2 x$_3 x$_4 x$_5 x$_6 x$_7 x$_8 x$_9 x$_10 x$_11 x$_12 x$_13 x$_14 x$_15 x$_16 x$_17 x$_18 x$_19 x$_20 x$_21 x$_22 x$_23 x$_24 x$_25 x$_26 x$_27 x$_28 x$_29 x$_30 x$_31 x$_32 x$_33 x$_34 x$_35 x$_36 x$_37 x$_38 x$_39 x$_40 x$_41 x$_42 x$_43 x$_44 x$_45 x$_46 x$_47 x$_48 x$_49 x$_50 x$_51 x$_52 x$_53 x$_54 x$_55 x$_56 x$_57 x$_58 x$_59


General

 x_0 x_1 x_2 x_3 x_4

End
